Cd108 Te81 Se27
1.0
  19.5688538746838567   -0.0000232655791564    0.0003962563860597
  -0.0000232871449320   19.5645355265593039   -0.0003854394020055
   0.0003962593425522   -0.0003854102552055   19.5672165504870499
Cd Se Te
108 27 81
direct
   0.9951992966360742    0.9953733185323670    0.0030902982385367 Cd
   0.9985833066629637    0.0004822650753614    0.3342797850545348 Cd
   0.0030962542270874    0.9947016016877208    0.6640359870520377 Cd
   0.9942791952460306    0.3374433342875531    0.9963656299244655 Cd
   0.9999785100051716    0.3342567483767261    0.3337577641754417 Cd
   0.9999043957066092    0.3328735392163014    0.6590456357366149 Cd
   0.9914453821104535    0.6670736101390959    0.9992534987251014 Cd
   0.9995019302940978    0.6660487049307432    0.3337483017712305 Cd
   0.9991198728914085    0.6721681271632765    0.6672356498926183 Cd
   0.3348501765580024    0.0007553669843758    0.0008733125049411 Cd
   0.3369886685980094    0.9963709346149456    0.3301190485526438 Cd
   0.3283993127895802    0.0045340058006309    0.6635088821709786 Cd
   0.3391509814949717    0.3373935718959520    0.0044675077619939 Cd
   0.3336612486940335    0.3325475623902468    0.3263524979150060 Cd
   0.3305668986078722    0.3381410596563930    0.6633817520053623 Cd
   0.3346039034854488    0.6660173569666693    0.9997407058700256 Cd
   0.3339633815191376    0.6650659962606460    0.3327521355739736 Cd
   0.3333019786314028    0.6669222946738740    0.6670046242344544 Cd
   0.6709757567122422    0.0036636096146742    0.9973364475470986 Cd
   0.6662550260241977    0.0012558475946404    0.3317453458511613 Cd
   0.6674419618115206    0.9983619081976105    0.6672510382898897 Cd
   0.6592813662876259    0.3340771772469027    0.9999100296176237 Cd
   0.6737452799441019    0.3339009309298836    0.3317164733090729 Cd
   0.6716317542163397    0.3370309421334790    0.6719544110111426 Cd
   0.6607055590873068    0.6654984700249842    0.9994219740702786 Cd
   0.6713921219433483    0.6709589767430638    0.3363827939628380 Cd
   0.6644713927145077    0.6610635747161915    0.6721520510855772 Cd
   0.9997493654087519    0.1678729704963106    0.1661288225666289 Cd
   0.0034041463537902    0.1720964899722327    0.5034180928875234 Cd
   0.9983958634791450    0.1660920524481103    0.8326444479187426 Cd
   0.9946619544810996    0.5041478068256056    0.1621245554254312 Cd
   0.9951616479706504    0.4972425598107946    0.5045361000311622 Cd
   0.9959282478113148    0.4964898157814695    0.8356289962534951 Cd
   0.9941346463015429    0.8377084255471695    0.1624991211745601 Cd
   0.9997860677462892    0.8337699783382756    0.5084288643281909 Cd
   0.9991429786145628    0.8248329269481570    0.8337023469184711 Cd
   0.3381386808913490    0.1708853308190057    0.1699953016181705 Cd
   0.3286670009361387    0.1621318090242120    0.5023372380555882 Cd
   0.3345351158029191    0.1689886439611257    0.8333451361601500 Cd
   0.3349609514756252    0.4911953890525868    0.1660196127418685 Cd
   0.3294654948618005    0.4947390828885983    0.5039088742381631 Cd
   0.3345230188707138    0.5012807006091162    0.8339018339089089 Cd
   0.3386848892029700    0.8364674927194872    0.1698819423126331 Cd
   0.3323179880265517    0.8328692336080958    0.5003371447558490 Cd
   0.3339903686046057    0.8340669855064291    0.8325239884319714 Cd
   0.6691732541650763    0.1705526268676340    0.1617443461823611 Cd
   0.6667056359195340    0.1682704371084172    0.5000213619555085 Cd
   0.6633137825434217    0.1636011091301301    0.8379281859911670 Cd
   0.6627893358626060    0.5039956459856435    0.1622017178537958 Cd
   0.6714843106009949    0.4960351839414568    0.4963125834857529 Cd
   0.6649459542025054    0.4965473623619411    0.8316321118184169 Cd
   0.6677489191616164    0.8329106182410411    0.1650190372339387 Cd
   0.6704499189847621    0.8289767235580753    0.4960744707736759 Cd
   0.6685100734951258    0.8330375781748687    0.8419679165457209 Cd
   0.1673426347037158    0.0009085679986132    0.1668844449847900 Cd
   0.1662121525225745    0.9992002150975917    0.5075706937190896 Cd
   0.1654552522436560    0.9998994154906288    0.8333341022693177 Cd
   0.1699600015623841    0.3378560039931568    0.1698579180318304 Cd
   0.1665260595855379    0.3330018018963063    0.5062707961686235 Cd
   0.1662740639852625    0.3331843806972020    0.8321793079105970 Cd
   0.1660968375101388    0.6669509850008579    0.1660629769441223 Cd
   0.1659632769570525    0.6651514486820153    0.4996529121862919 Cd
   0.1604435322939956    0.6700258875536217    0.8280069090607378 Cd
   0.4978752351432276    0.9963769740806641    0.1687423913048023 Cd
   0.5006151048223678    0.0003162717814564    0.4988465682909929 Cd
   0.5047714905872194    0.0047344534925173    0.8381275036067785 Cd
   0.4979503170562763    0.3289891021832247    0.1625331981827162 Cd
   0.5005213166830048    0.3336131519528276    0.5001396004236478 Cd
   0.5039813181880711    0.3381996882392959    0.8384363167708968 Cd
   0.5045762257270300    0.6612767617331674    0.1620912758837250 Cd
   0.5004833919715374    0.6658519884361365    0.4999183323524681 Cd
   0.5089464168261928    0.6659144584155376    0.8344799074686962 Cd
   0.8323259908689379    0.0002845905511417    0.1580867785140790 Cd
   0.8340554876432001    0.0009215490408979    0.4996879392947418 Cd
   0.8294666870552562    0.9938872489138925    0.8367141124329277 Cd
   0.8278797963156144    0.3304629686745222    0.1701682988737162 Cd
   0.8338612940790142    0.3409991355489798    0.4999885740418356 Cd
   0.8316142475662713    0.3406683666439836    0.8342790628095682 Cd
   0.8358893257647518    0.6621549985136091    0.1615078596647971 Cd
   0.8342247722685832    0.6733315394106451    0.5019799597758076 Cd
   0.8358345838254816    0.6696321862401587    0.8381032494543885 Cd
   0.1668240725776002    0.1680761339999338    0.0012757919783201 Cd
   0.1673332585993934    0.1661924008932284    0.3349925162604645 Cd
   0.1658885793572394    0.1673994515539846    0.6594942704817455 Cd
   0.1654047954343601    0.5010741767334047    0.9992265223151331 Cd
   0.1705026229292872    0.4946817279535030    0.3296455847760215 Cd
   0.1694131143409708    0.4965562012966129    0.6632933811590107 Cd
   0.1663046430249403    0.8328328009125160    0.0001403635546940 Cd
   0.1656204634684833    0.8335947727866837    0.3341513668875226 Cd
   0.1578403735084207    0.8332547618154951    0.6673364344425352 Cd
   0.5093820131694408    0.1664826469868986    0.0012430886157380 Cd
   0.4964091475719105    0.1719723540696617    0.3283629983493209 Cd
   0.4999249081272988    0.1689747576605098    0.6677831135703179 Cd
   0.5039503030491003    0.4954572330634565    0.0037169469369289 Cd
   0.5011669931979099    0.4989303981815091    0.3326114905947093 Cd
   0.5048057793791160    0.5046616816733865    0.6710153291524708 Cd
   0.5053783273175022    0.8289100835263280    0.9956584720942288 Cd
   0.4968272474952650    0.8364605471222465    0.3282855093526984 Cd
   0.5008294353760901    0.8342578723164867    0.6675184164313006 Cd
   0.8281908967119646    0.1635191574721754    0.0034617959657244 Cd
   0.8294734875349759    0.1714477896996368    0.3285630552568905 Cd
   0.8333072852546644    0.1669259515200116    0.6677721451937301 Cd
   0.8379976579500045    0.4995175713222484    0.9998020964292207 Cd
   0.8286258170425332    0.4967753803939158    0.3369575177839693 Cd
   0.8336152950571534    0.4940736444605991    0.6674207676089445 Cd
   0.8357304243666411    0.8363980510666654    0.9954862010358070 Cd
   0.8297528982078840    0.8293172397916245    0.3364809868022596 Cd
   0.8369387539507624    0.8285628122654282    0.6637863531993947 Cd
   0.0799884891738568    0.7507961129521710    0.7484870420161269 Se
   0.4205846139566295    0.4154213655938692    0.0846825599638362 Se
   0.7480446494977584    0.0835947601581646    0.0826454090593540 Se
   0.7506910874246003    0.4148694749743433    0.4161485061141816 Se
   0.7503998949621418    0.4187006510698065    0.7519116499131222 Se
   0.7519192710082950    0.7492833578939605    0.4181977708359098 Se
   0.0844053110971588    0.2515435115137133    0.5831426915924407 Se
   0.0833039264845780    0.9153573618335378    0.5842704386106692 Se
   0.4170719115712458    0.2530631559690596    0.2477558605875074 Se
   0.4174591555681542    0.9172858947061763    0.2495675115973479 Se
   0.7478406119047500    0.2496167901626102    0.2482062878620527 Se
   0.7497543538529212    0.9164932116924231    0.9196094151693672 Se
   0.2471112983675476    0.0835850859634995    0.5831947799059390 Se
   0.2525294902353057    0.4153249933274509    0.2489851259632008 Se
   0.2483168935401023    0.4155498079730224    0.5835646654259775 Se
   0.5861667184365066    0.0833014793236787    0.9196618776783958 Se
   0.5839398390532051    0.4184819026956183    0.9181209967098390 Se
   0.5858017769492088    0.7483535761597641    0.9165242606570626 Se
   0.9154071560694380    0.4157838391327671    0.5840580783411841 Se
   0.9145783594042227    0.4181363810691868    0.9162926774406499 Se
   0.9181040903897283    0.7501927931243209    0.5839860358139655 Se
   0.9157279428398898    0.7509911352601323    0.9176982056686815 Se
   0.5841645382833683    0.2505114600376733    0.0832102134999851 Se
   0.5828330200625975    0.5819955324706428    0.0803017200954451 Se
   0.5854370078166958    0.5815258063585619    0.7535739480995088 Se
   0.9154954683937361    0.5829745296091142    0.0800432447329845 Se
   0.9128469769047390    0.9163035576064661    0.0808038329459244 Se
   0.0819596508088915    0.0821413560694861    0.0825927856429297 Te
   0.0835354702078987    0.0829902717587381    0.4203023299685145 Te
   0.0834939200545412    0.0837635152137616    0.7467884095181381 Te
   0.0811521565259078    0.4173483623539062    0.0832358003635062 Te
   0.0840480032962701    0.4166511970098775    0.4194633324721191 Te
   0.0815781848481953    0.4158883194462004    0.7475851761528804 Te
   0.0791530285421547    0.7498081933801880    0.0824468011688780 Te
   0.0813652318742959    0.7510422374536542    0.4191252609940253 Te
   0.4195649013745557    0.0851509817094792    0.0842004800494007 Te
   0.4164218466348197    0.0843351721876617    0.4147195295351426 Te
   0.4170130149741121    0.0830597142817078    0.7505584543684721 Te
   0.4148353571861427    0.4155686489359340    0.4155376768271595 Te
   0.4183475872734352    0.4176686267169928    0.7498601031028183 Te
   0.4196384958151128    0.7501399356661879    0.0833026309209167 Te
   0.4170315887715885    0.7506225963275744    0.4154997226661528 Te
   0.4198379216945549    0.7479749666194806    0.7517438818885916 Te
   0.7503743685051435    0.0850794379052634    0.4154483929196842 Te
   0.7495671315174703    0.0821809840489438    0.7524606327125807 Te
   0.7485343172840303    0.4169070988522149    0.0821529413881448 Te
   0.7512513635494050    0.7490952610515774    0.0789924830613801 Te
   0.7498654722746904    0.7499072030474161    0.7523721939941957 Te
   0.0847463722640055    0.2509403404927973    0.2501955067671817 Te
   0.0814131122443737    0.2509966650589924    0.9170921893158061 Te
   0.0831490517428898    0.5812429130571716    0.2495100294720563 Te
   0.0815340822882328    0.5831076132554450    0.5849288787510065 Te
   0.0794033187914028    0.5849106129060759    0.9159351714723912 Te
   0.0814126394664334    0.9170586498330522    0.2487971512975408 Te
   0.0805912566810491    0.9145197668424329    0.9162570772840504 Te
   0.4142238734028158    0.2498130082653009    0.5826439465456142 Te
   0.4207278658406221    0.2506079081566877    0.9196548559204712 Te
   0.4171503730408999    0.5806547358431636    0.2471339821450919 Te
   0.4163974078997975    0.5815727539129988    0.5838587471965149 Te
   0.4221305414853446    0.5821837441818979    0.9182969504324108 Te
   0.4156198387622280    0.9182936137039669    0.5838329440343321 Te
   0.4191987710220671    0.9168304239582237    0.9168407044014086 Te
   0.7513459177902693    0.2533303931582455    0.5834824244682244 Te
   0.7479718562966781    0.2517194346608975    0.9178482216359984 Te
   0.7494888827143734    0.5834554185416472    0.2492834875190172 Te
   0.7516713881183030    0.5823980287629765    0.5837626979026100 Te
   0.7489014207503858    0.5817488795352703    0.9170200282671124 Te
   0.7516745380529904    0.9169948640920500    0.2486325244765259 Te
   0.7512171358524479    0.9143381545824650    0.5822303541166969 Te
   0.2527451018588325    0.0839471816806020    0.2500831352779355 Te
   0.2501797460087559    0.0841279349660264    0.9167088818574893 Te
   0.2513158090692129    0.4162719455636780    0.9175743040459258 Te
   0.2509646610421078    0.7511726034796908    0.2498218490541548 Te
   0.2470277582670104    0.7507565100467721    0.5850431244468151 Te
   0.2488546853422554    0.7488102531144388    0.9147442986082495 Te
   0.5831132441139223    0.0862967247195512    0.2468832801215289 Te
   0.5837219076923966    0.0837800704682406    0.5840556873929351 Te
   0.5839647530649092    0.4140430925528036    0.2469314143565152 Te
   0.5857920281968984    0.4177496343197919    0.5850050769067892 Te
   0.5836198810479403    0.7492432408679517    0.2490959941110668 Te
   0.5853230460447915    0.7485123845099868    0.5844776403808786 Te
   0.9140207320287744    0.0834125546264055    0.2477683769257206 Te
   0.9190839003839619    0.0837425030742090    0.5841822236702549 Te
   0.9137755418004305    0.0812695675903496    0.9179063437450763 Te
   0.9142250098152520    0.4174255690824116    0.2496978216088216 Te
   0.9150085971842280    0.7492350246047461    0.2483300583833893 Te
   0.2522169401623247    0.2526187847374824    0.0853093471334575 Te
   0.2505378310537546    0.2517331250278658    0.4176850595595782 Te
   0.2494830321773459    0.2501932801338210    0.7465838132902916 Te
   0.2517636190887866    0.5809427959037976    0.0844826460802426 Te
   0.2501870328520213    0.5805031948633311    0.4164856079818216 Te
   0.2482983694287751    0.5832732994764775    0.7497310127931381 Te
   0.2515773378956616    0.9160055094706100    0.0843516365063935 Te
   0.2493746917029236    0.9184648078697208    0.4176666315075108 Te
   0.2476570126103690    0.9161937996316794    0.7477074817997564 Te
   0.5844725904094286    0.2519252770821843    0.4137761837663570 Te
   0.5846935024565265    0.2518554915072826    0.7527759312247180 Te
   0.5862594773870514    0.5828769583745692    0.4159861263963068 Te
   0.5850288714000067    0.9177354091419059    0.0804268336492730 Te
   0.5838178520296127    0.9150307488233660    0.4149294967334958 Te
   0.5851233438152623    0.9162704355631047    0.7546665471509842 Te
   0.9136120657055395    0.2507736990542548    0.0830293892144446 Te
   0.9150064228640397    0.2518190330528110    0.4173632359419003 Te
   0.9159149391305174    0.2541945378262187    0.7499285353512722 Te
   0.9137961118284345    0.5833472748366496    0.4188222077804760 Te
   0.9158800131233170    0.5837263149848317    0.7502624040811139 Te
   0.9168179302495719    0.9137890205063706    0.4185723800733812 Te
   0.9174321649727967    0.9129633159649898    0.7505950370042589 Te
