Cd Se Te                                
   1.0000000000000000     
    19.5688342545326996   -0.0000235859224547    0.0003972254974676
    -0.0000236074368537   19.5645159661226380   -0.0003854236282098
     0.0003972283909241   -0.0003853944971945   19.5671963513285370
   Cd   Se   Te
   108    27    81
Direct
  0.9952023717426357  0.9953752820051704  0.0030936806626158
  0.9985887021778339  0.0004759794196687  0.3342790639051714
  0.0031000009867199  0.9947042594230524  0.6640342388862379
  0.9942849510878915  0.3374419932148243  0.9963644852699716
  0.9999818121926864  0.3342489066450085  0.3337580627265524
  0.9999087404823470  0.3328733133728150  0.6590495890169805
  0.9914506961726062  0.6670716990244401  0.9992548531465175
  0.9995076263742888  0.6660497821789164  0.3337496566107205
  0.9991242213781675  0.6721668117802722  0.6672359148700053
  0.3348376910897528  0.0007530456817193  0.0008743186655451
  0.3369871726941014  0.9963759518480728  0.3301179214839323
  0.3284013108493085  0.0045270942753959  0.6635049831364270
  0.3391450711581427  0.3373897516578097  0.0044685076428976
  0.3336627300632102  0.3325499651665993  0.3263533672129952
  0.3305634819496674  0.3381391324704950  0.6633797684021729
  0.3346023967645451  0.6660169841262658  0.9997428582196832
  0.3339628583104925  0.6650778089776352  0.3327597307349635
  0.3333009728578773  0.6669177055333719  0.6670021203916647
  0.6709701234528396  0.0036640061499043  0.9973381283427898
  0.6662560512538178  0.0012544196922875  0.3317562395225622
  0.6674392875990662  0.9983685562383542  0.6672502140239871
  0.6592863605118922  0.3340773812404407  0.9999061499526363
  0.6737452926622680  0.3338999417810555  0.3317193158451204
  0.6716303102261350  0.3370242130892578  0.6719482149367337
  0.6607033182750541  0.6655032308202706  0.9994229925169336
  0.6713900868727478  0.6709603394104207  0.3363812001671960
  0.6644684985237106  0.6610640147650884  0.6721509108959083
  0.9997578929534896  0.1678678132514477  0.1661264744542308
  0.0034063200591063  0.1720919017583000  0.5034168798154681
  0.9984010404923040  0.1660956772375357  0.8326430750599982
  0.9946670618640212  0.5041459380902609  0.1621229074173982
  0.9951641307065842  0.4972461777932864  0.5045351098350324
  0.9959315547421213  0.4964929326226581  0.8356310000792817
  0.9941453724193892  0.8377076907226240  0.1625031198748346
  0.9997851244634077  0.8337723938770552  0.5084262653151654
  0.9991464187399259  0.8248375603369240  0.8336989839753031
  0.3381339673792212  0.1708848365384483  0.1699974089394019
  0.3286689590943723  0.1621330820070597  0.5023342304489162
  0.3345338709485901  0.1689768758117722  0.8333393479939701
  0.3349578465999201  0.4912021190147726  0.1660251300337947
  0.3294632943179892  0.4947406969426780  0.5039097397008092
  0.3345196512780575  0.5012741848329014  0.8338992160410541
  0.3386805394299799  0.8364754204958658  0.1698848512491153
  0.3323203611390042  0.8328691260266936  0.5003325920917092
  0.3339907897823338  0.8340660436713776  0.8325258981174528
  0.6691705143598412  0.1705511394961476  0.1617501362287683
  0.6666997674869108  0.1682564760370937  0.5000243241700915
  0.6633098627219809  0.1636012632789630  0.8379240129942289
  0.6627911547906535  0.5039976907581973  0.1622032397786981
  0.6714792051019387  0.4960357422457946  0.4963117304183342
  0.6649495421108611  0.4965518507816569  0.8316277018814162
  0.6677454642599798  0.8329114494036105  0.1650256725652355
  0.6704563415946652  0.8289782901196929  0.4960710435226190
  0.6685077320189095  0.8330378058366890  0.8419613827150698
  0.1673380935830977  0.0009099075141847  0.1668767696525677
  0.1662165624215888  0.9992034643355652  0.5075639930974063
  0.1654625118537822  0.9999014367642758  0.8333341140131907
  0.1699638121313143  0.3378487223328008  0.1698634849085252
  0.1665222365688805  0.3330030075847148  0.5062674708787114
  0.1662705575059107  0.3331792376503486  0.8321780611208851
  0.1660970543640659  0.6669510080404351  0.1660671392358708
  0.1659631461631150  0.6651563930009701  0.4996496826803494
  0.1604459279833108  0.6700230549791684  0.8280070072646026
  0.4978671555930916  0.9963758686462683  0.1687428504675736
  0.5006190094271190  0.0003177002179768  0.4988542494673993
  0.5047674864842833  0.0047264562841605  0.8381225585062211
  0.4979428502311549  0.3289909106410462  0.1625389371951442
  0.5005190078822608  0.3336096657079182  0.5001378562631871
  0.5039778241513417  0.3381918714088172  0.8384336149244760
  0.5045744624415605  0.6612788202327877  0.1620919966955796
  0.5004786676111053  0.6658556395142980  0.4999195682068844
  0.5089412121411812  0.6659162580696432  0.8344783145518093
  0.8323310521096445  0.0002830720066953  0.1580920782709683
  0.8340568920797793  0.0009189539766297  0.4996842636768193
  0.8294670396934265  0.9938943697190794  0.8367123916862838
  0.8278836502729874  0.3304599170314546  0.1701731850208432
  0.8338631202651925  0.3409965635479040  0.4999872263231069
  0.8316170235713471  0.3406674539867680  0.8342768308673811
  0.8358911700862564  0.6621541000697846  0.1615124851493235
  0.8342263966975096  0.6733290215079464  0.5019762139987378
  0.8358343004010251  0.6696357149700418  0.8380977020579508
  0.1668227725438314  0.1680644750227032  0.0012735471473988
  0.1673324180152207  0.1661944699633366  0.3349911187288583
  0.1658886075059556  0.1673987858019430  0.6595005704029617
  0.1654093977026179  0.5010720651378335  0.9992321902903569
  0.1705002103872886  0.4946867848820347  0.3296513546887354
  0.1694182644823101  0.4965578177712970  0.6632950478399806
  0.1663066661508097  0.8328361082235389  0.0001373962119189
  0.1656249273741750  0.8335914993869125  0.3341521291251297
  0.1578440595466617  0.8332591174488755  0.6673332405653056
  0.5093765709066531  0.1664807816296587  0.0012411248328590
  0.4964080853195654  0.1719686357500763  0.3283660757526476
  0.4999213423702997  0.1689697559289698  0.6677804556955991
  0.5039510877369011  0.4954645786901892  0.0037133389032675
  0.5011617947881248  0.4989368372641820  0.3326125313625639
  0.5047988772662251  0.5046610247281791  0.6710127549979461
  0.5053730705535884  0.8289106642898219  0.9956626573894383
  0.4968219517141179  0.8364646942946408  0.3282874571545520
  0.5008211084422243  0.8342566612710698  0.6675173599081745
  0.8281979219864084  0.1635187243330378  0.0034649729379908
  0.8294723318079562  0.1714430870428103  0.3285664217477304
  0.8333096371654136  0.1669265427401712  0.6677716375218949
  0.8380021548729317  0.4995160109238910  0.9998048266261037
  0.8286266971384322  0.4967693049565369  0.3369570642070272
  0.8336153443135856  0.4940781070250750  0.6674179100844526
  0.8357303267651730  0.8363981214284948  0.9954867091142816
  0.8297490185623388  0.8293143537214860  0.3364848603094828
  0.8369425362789968  0.8285690798227776  0.6637838394468929
  0.0799924821811970  0.7507969766092657  0.7484860752323357
  0.4205812013013528  0.4154224491915599  0.0846848488160958
  0.7480459858080337  0.0835913359434244  0.0826461304488575
  0.7506892882363800  0.4148709306737359  0.4161501269046397
  0.7503990101614875  0.4186962464504091  0.7519073237304070
  0.7519172459718035  0.7492840786171797  0.4181973569972826
  0.0844075968966465  0.2515421638471764  0.5831426468872891
  0.0833074426042586  0.9153567292016547  0.5842680565120233
  0.4170680211846118  0.2530579129271544  0.2477608962424256
  0.4174596729940561  0.9172851561600766  0.2495692875860769
  0.7478431164544048  0.2496189156786315  0.2482108424635783
  0.7497539513445801  0.9164916915128529  0.9196073237856197
  0.2471106780588599  0.0835863673412973  0.5831942795227150
  0.2525269734912783  0.4153244367435960  0.2489871042493235
  0.2483158610578968  0.4155492672592374  0.5835628346737636
  0.5861623905402666  0.0833004222804732  0.9196576373506957
  0.5839372652626693  0.4184824902396969  0.9181190552566392
  0.5857982243269362  0.7483554230073892  0.9165227008768255
  0.9154112463656006  0.4157827269950900  0.5840598529682595
  0.9145805675219236  0.4181343953599708  0.9162933803618358
  0.9181044543187440  0.7501891335615198  0.5839846225536505
  0.9157325901809301  0.7509905180739693  0.9176971545675627
  0.5841620865951214  0.2505118692078128  0.0832115716616215
  0.5828334535377735  0.5819987967490121  0.0803058405058934
  0.5854309979128303  0.5815267895212841  0.7535713419686374
  0.9154966021821309  0.5829742061305083  0.0800481234650761
  0.9128500016740588  0.9163006689382769  0.0808053558262714
  0.0819683691256188  0.0821421934806779  0.0825996155314712
  0.0835340492499128  0.0829878757673725  0.4203012971048992
  0.0834930363966748  0.0837600732554407  0.7467897654416831
  0.0811526473147381  0.4173488195296926  0.0832357245129813
  0.0840496845795755  0.4166519411277960  0.4194607719602530
  0.0815806151874767  0.4158882172652909  0.7475864077729142
  0.0791570245595778  0.7498118041785133  0.0824469882505312
  0.0813686986233790  0.7510444600736719  0.4191262813986754
  0.4195597924528727  0.0851486496458520  0.0841975228456988
  0.4164206740574485  0.0843301971937933  0.4147210862340458
  0.4170132608275807  0.0830643842770442  0.7505579522373012
  0.4148352136961293  0.4155707402252560  0.4155391711263832
  0.4183463859913346  0.4176708389248915  0.7498581954805559
  0.4196350965691167  0.7501405614821408  0.0833041326052566
  0.4170284305002596  0.7506212987109038  0.4154993756013354
  0.4198334741643777  0.7479789705831195  0.7517398800481629
  0.7503728924012236  0.0850792487782783  0.4154524663849060
  0.7495649824570521  0.0821790415422683  0.7524542586425724
  0.7485377023909976  0.4169057523715765  0.0821549196048181
  0.7512510907174956  0.7490976970628225  0.0789987358406421
  0.7498624579160733  0.7499096110629040  0.7523652303739041
  0.0847446303735708  0.2509375690023958  0.2501945225083162
  0.0814194773614432  0.2509932968305222  0.9170943355021421
  0.0831504795081699  0.5812439653900725  0.2495092263640402
  0.0815395853474783  0.5831104037712151  0.5849265891213449
  0.0794093254031623  0.5849113259832706  0.9159360105635344
  0.0814210775055599  0.9170645760263412  0.2487975269305522
  0.0805952540801371  0.9145211075029422  0.9162585564138297
  0.4142249280133043  0.2498099828625868  0.5826457957463091
  0.4207201533274656  0.2506045586745955  0.9196532230320642
  0.4171454024439569  0.5806578165020895  0.2471358897589226
  0.4163950704531061  0.5815780274651416  0.5838586257747451
  0.4221243149168004  0.5821870405375194  0.9182961729300771
  0.4156192358407935  0.9182954036565647  0.5838274945015414
  0.4191971072029474  0.9168337064507526  0.9168400335743812
  0.7513437643608754  0.2533258630483175  0.5834783944327953
  0.7479766072528449  0.2517147425092574  0.9178444239835244
  0.7494875634691596  0.5834567443762708  0.2492850118818382
  0.7516682439082913  0.5824018933832775  0.5837592353993202
  0.7489005689725445  0.5817497302189452  0.9170215915201965
  0.7516734162934142  0.9169982351375126  0.2486342555210683
  0.7512134705344380  0.9143423739726515  0.5822289794907078
  0.2527430088930274  0.0839430883875494  0.2500832496037475
  0.2501805710255738  0.0841302570769713  0.9167119601696569
  0.2513148804355225  0.4162749269543724  0.9175723963446316
  0.2509653267421683  0.7511725905928373  0.2498231683124246
  0.2470303274967591  0.7507567083948459  0.5850422069834025
  0.2488542281055075  0.7488136839839612  0.9147441725149434
  0.5831134219154066  0.0862937325420035  0.2468862317985980
  0.5837197979090760  0.0837782084745911  0.5840543225528165
  0.5839608270705909  0.4140438234679280  0.2469353730877586
  0.5857891578892946  0.4177481164488484  0.5850057412623713
  0.5836159923720814  0.7492449518042079  0.2490973363475959
  0.5853200257311002  0.7485155556862537  0.5844774094391312
  0.9140261444447688  0.0834142139753737  0.2477716111979475
  0.9190834727896373  0.0837410292937975  0.5841818754579506
  0.9137806494023124  0.0812705965578076  0.9179023105903710
  0.9142308941453194  0.4174272930405252  0.2496978245083739
  0.9150128776648998  0.7492371551575587  0.2483302127098028
  0.2522125661592867  0.2526158038141588  0.0853062827132192
  0.2505395074287264  0.2517304515061198  0.4176848592229305
  0.2494851542117331  0.2501945208156329  0.7465860019081916
  0.2517621339804990  0.5809450046206805  0.0844791570519732
  0.2501898525987585  0.5805061910570544  0.4164853213840516
  0.2483024323616263  0.5832786298739094  0.7497305783980366
  0.2515740456801367  0.9160088296296465  0.0843547731185268
  0.2493749895624973  0.9184590856084895  0.4176669282960077
  0.2476583107357371  0.9161923808796217  0.7477079977098597
  0.5844748294488866  0.2519236210917271  0.4137795811415046
  0.5846909555851667  0.2518525378041261  0.7527718863683432
  0.5862559546993538  0.5828782572441256  0.4159862653369899
  0.5850271395826354  0.9177350342317894  0.0804256191378840
  0.5838127183317425  0.9150310874233298  0.4149302951745355
  0.5851189356663227  0.9162724409226755  0.7546621600255108
  0.9136181238845609  0.2507733143549018  0.0830293778645554
  0.9150055429978039  0.2518170295766708  0.4173625836133681
  0.9159161537789586  0.2541898919368677  0.7499286585961471
  0.9137984576755258  0.5833517506874486  0.4188180714337904
  0.9158830780515999  0.5837253658821737  0.7502629048032148
  0.9168196893944796  0.9137920223424132  0.4185717102457005
  0.9174328347496399  0.9129675475767414  0.7505975326012759

  0.00000000E+00  0.00000000E+00  0.00000000E+00
  0.00000000E+00  0.00000000E+00  0.00000000E+00
  0.00000000E+00  0.00000000E+00  0.00000000E+00
  0.00000000E+00  0.00000000E+00  0.00000000E+00
  0.00000000E+00  0.00000000E+00  0.00000000E+00
  0.00000000E+00  0.00000000E+00  0.00000000E+00
  0.00000000E+00  0.00000000E+00  0.00000000E+00
  0.00000000E+00  0.00000000E+00  0.00000000E+00
  0.00000000E+00  0.00000000E+00  0.00000000E+00
  0.00000000E+00  0.00000000E+00  0.00000000E+00
  0.00000000E+00  0.00000000E+00  0.00000000E+00
  0.00000000E+00  0.00000000E+00  0.00000000E+00
  0.00000000E+00  0.00000000E+00  0.00000000E+00
  0.00000000E+00  0.00000000E+00  0.00000000E+00
  0.00000000E+00  0.00000000E+00  0.00000000E+00
  0.00000000E+00  0.00000000E+00  0.00000000E+00
  0.00000000E+00  0.00000000E+00  0.00000000E+00
  0.00000000E+00  0.00000000E+00  0.00000000E+00
  0.00000000E+00  0.00000000E+00  0.00000000E+00
  0.00000000E+00  0.00000000E+00  0.00000000E+00
  0.00000000E+00  0.00000000E+00  0.00000000E+00
  0.00000000E+00  0.00000000E+00  0.00000000E+00
  0.00000000E+00  0.00000000E+00  0.00000000E+00
  0.00000000E+00  0.00000000E+00  0.00000000E+00
  0.00000000E+00  0.00000000E+00  0.00000000E+00
  0.00000000E+00  0.00000000E+00  0.00000000E+00
  0.00000000E+00  0.00000000E+00  0.00000000E+00
  0.00000000E+00  0.00000000E+00  0.00000000E+00
  0.00000000E+00  0.00000000E+00  0.00000000E+00
  0.00000000E+00  0.00000000E+00  0.00000000E+00
  0.00000000E+00  0.00000000E+00  0.00000000E+00
  0.00000000E+00  0.00000000E+00  0.00000000E+00
  0.00000000E+00  0.00000000E+00  0.00000000E+00
  0.00000000E+00  0.00000000E+00  0.00000000E+00
  0.00000000E+00  0.00000000E+00  0.00000000E+00
  0.00000000E+00  0.00000000E+00  0.00000000E+00
  0.00000000E+00  0.00000000E+00  0.00000000E+00
  0.00000000E+00  0.00000000E+00  0.00000000E+00
  0.00000000E+00  0.00000000E+00  0.00000000E+00
  0.00000000E+00  0.00000000E+00  0.00000000E+00
  0.00000000E+00  0.00000000E+00  0.00000000E+00
  0.00000000E+00  0.00000000E+00  0.00000000E+00
  0.00000000E+00  0.00000000E+00  0.00000000E+00
  0.00000000E+00  0.00000000E+00  0.00000000E+00
  0.00000000E+00  0.00000000E+00  0.00000000E+00
  0.00000000E+00  0.00000000E+00  0.00000000E+00
  0.00000000E+00  0.00000000E+00  0.00000000E+00
  0.00000000E+00  0.00000000E+00  0.00000000E+00
  0.00000000E+00  0.00000000E+00  0.00000000E+00
  0.00000000E+00  0.00000000E+00  0.00000000E+00
  0.00000000E+00  0.00000000E+00  0.00000000E+00
  0.00000000E+00  0.00000000E+00  0.00000000E+00
  0.00000000E+00  0.00000000E+00  0.00000000E+00
  0.00000000E+00  0.00000000E+00  0.00000000E+00
  0.00000000E+00  0.00000000E+00  0.00000000E+00
  0.00000000E+00  0.00000000E+00  0.00000000E+00
  0.00000000E+00  0.00000000E+00  0.00000000E+00
  0.00000000E+00  0.00000000E+00  0.00000000E+00
  0.00000000E+00  0.00000000E+00  0.00000000E+00
  0.00000000E+00  0.00000000E+00  0.00000000E+00
  0.00000000E+00  0.00000000E+00  0.00000000E+00
  0.00000000E+00  0.00000000E+00  0.00000000E+00
  0.00000000E+00  0.00000000E+00  0.00000000E+00
  0.00000000E+00  0.00000000E+00  0.00000000E+00
  0.00000000E+00  0.00000000E+00  0.00000000E+00
  0.00000000E+00  0.00000000E+00  0.00000000E+00
  0.00000000E+00  0.00000000E+00  0.00000000E+00
  0.00000000E+00  0.00000000E+00  0.00000000E+00
  0.00000000E+00  0.00000000E+00  0.00000000E+00
  0.00000000E+00  0.00000000E+00  0.00000000E+00
  0.00000000E+00  0.00000000E+00  0.00000000E+00
  0.00000000E+00  0.00000000E+00  0.00000000E+00
  0.00000000E+00  0.00000000E+00  0.00000000E+00
  0.00000000E+00  0.00000000E+00  0.00000000E+00
  0.00000000E+00  0.00000000E+00  0.00000000E+00
  0.00000000E+00  0.00000000E+00  0.00000000E+00
  0.00000000E+00  0.00000000E+00  0.00000000E+00
  0.00000000E+00  0.00000000E+00  0.00000000E+00
  0.00000000E+00  0.00000000E+00  0.00000000E+00
  0.00000000E+00  0.00000000E+00  0.00000000E+00
  0.00000000E+00  0.00000000E+00  0.00000000E+00
  0.00000000E+00  0.00000000E+00  0.00000000E+00
  0.00000000E+00  0.00000000E+00  0.00000000E+00
  0.00000000E+00  0.00000000E+00  0.00000000E+00
  0.00000000E+00  0.00000000E+00  0.00000000E+00
  0.00000000E+00  0.00000000E+00  0.00000000E+00
  0.00000000E+00  0.00000000E+00  0.00000000E+00
  0.00000000E+00  0.00000000E+00  0.00000000E+00
  0.00000000E+00  0.00000000E+00  0.00000000E+00
  0.00000000E+00  0.00000000E+00  0.00000000E+00
  0.00000000E+00  0.00000000E+00  0.00000000E+00
  0.00000000E+00  0.00000000E+00  0.00000000E+00
  0.00000000E+00  0.00000000E+00  0.00000000E+00
  0.00000000E+00  0.00000000E+00  0.00000000E+00
  0.00000000E+00  0.00000000E+00  0.00000000E+00
  0.00000000E+00  0.00000000E+00  0.00000000E+00
  0.00000000E+00  0.00000000E+00  0.00000000E+00
  0.00000000E+00  0.00000000E+00  0.00000000E+00
  0.00000000E+00  0.00000000E+00  0.00000000E+00
  0.00000000E+00  0.00000000E+00  0.00000000E+00
  0.00000000E+00  0.00000000E+00  0.00000000E+00
  0.00000000E+00  0.00000000E+00  0.00000000E+00
  0.00000000E+00  0.00000000E+00  0.00000000E+00
  0.00000000E+00  0.00000000E+00  0.00000000E+00
  0.00000000E+00  0.00000000E+00  0.00000000E+00
  0.00000000E+00  0.00000000E+00  0.00000000E+00
  0.00000000E+00  0.00000000E+00  0.00000000E+00
  0.00000000E+00  0.00000000E+00  0.00000000E+00
  0.00000000E+00  0.00000000E+00  0.00000000E+00
  0.00000000E+00  0.00000000E+00  0.00000000E+00
  0.00000000E+00  0.00000000E+00  0.00000000E+00
  0.00000000E+00  0.00000000E+00  0.00000000E+00
  0.00000000E+00  0.00000000E+00  0.00000000E+00
  0.00000000E+00  0.00000000E+00  0.00000000E+00
  0.00000000E+00  0.00000000E+00  0.00000000E+00
  0.00000000E+00  0.00000000E+00  0.00000000E+00
  0.00000000E+00  0.00000000E+00  0.00000000E+00
  0.00000000E+00  0.00000000E+00  0.00000000E+00
  0.00000000E+00  0.00000000E+00  0.00000000E+00
  0.00000000E+00  0.00000000E+00  0.00000000E+00
  0.00000000E+00  0.00000000E+00  0.00000000E+00
  0.00000000E+00  0.00000000E+00  0.00000000E+00
  0.00000000E+00  0.00000000E+00  0.00000000E+00
  0.00000000E+00  0.00000000E+00  0.00000000E+00
  0.00000000E+00  0.00000000E+00  0.00000000E+00
  0.00000000E+00  0.00000000E+00  0.00000000E+00
  0.00000000E+00  0.00000000E+00  0.00000000E+00
  0.00000000E+00  0.00000000E+00  0.00000000E+00
  0.00000000E+00  0.00000000E+00  0.00000000E+00
  0.00000000E+00  0.00000000E+00  0.00000000E+00
  0.00000000E+00  0.00000000E+00  0.00000000E+00
  0.00000000E+00  0.00000000E+00  0.00000000E+00
  0.00000000E+00  0.00000000E+00  0.00000000E+00
  0.00000000E+00  0.00000000E+00  0.00000000E+00
  0.00000000E+00  0.00000000E+00  0.00000000E+00
  0.00000000E+00  0.00000000E+00  0.00000000E+00
  0.00000000E+00  0.00000000E+00  0.00000000E+00
  0.00000000E+00  0.00000000E+00  0.00000000E+00
  0.00000000E+00  0.00000000E+00  0.00000000E+00
  0.00000000E+00  0.00000000E+00  0.00000000E+00
  0.00000000E+00  0.00000000E+00  0.00000000E+00
  0.00000000E+00  0.00000000E+00  0.00000000E+00
  0.00000000E+00  0.00000000E+00  0.00000000E+00
  0.00000000E+00  0.00000000E+00  0.00000000E+00
  0.00000000E+00  0.00000000E+00  0.00000000E+00
  0.00000000E+00  0.00000000E+00  0.00000000E+00
  0.00000000E+00  0.00000000E+00  0.00000000E+00
  0.00000000E+00  0.00000000E+00  0.00000000E+00
  0.00000000E+00  0.00000000E+00  0.00000000E+00
  0.00000000E+00  0.00000000E+00  0.00000000E+00
  0.00000000E+00  0.00000000E+00  0.00000000E+00
  0.00000000E+00  0.00000000E+00  0.00000000E+00
  0.00000000E+00  0.00000000E+00  0.00000000E+00
  0.00000000E+00  0.00000000E+00  0.00000000E+00
  0.00000000E+00  0.00000000E+00  0.00000000E+00
  0.00000000E+00  0.00000000E+00  0.00000000E+00
  0.00000000E+00  0.00000000E+00  0.00000000E+00
  0.00000000E+00  0.00000000E+00  0.00000000E+00
  0.00000000E+00  0.00000000E+00  0.00000000E+00
  0.00000000E+00  0.00000000E+00  0.00000000E+00
  0.00000000E+00  0.00000000E+00  0.00000000E+00
  0.00000000E+00  0.00000000E+00  0.00000000E+00
  0.00000000E+00  0.00000000E+00  0.00000000E+00
  0.00000000E+00  0.00000000E+00  0.00000000E+00
  0.00000000E+00  0.00000000E+00  0.00000000E+00
  0.00000000E+00  0.00000000E+00  0.00000000E+00
  0.00000000E+00  0.00000000E+00  0.00000000E+00
  0.00000000E+00  0.00000000E+00  0.00000000E+00
  0.00000000E+00  0.00000000E+00  0.00000000E+00
  0.00000000E+00  0.00000000E+00  0.00000000E+00
  0.00000000E+00  0.00000000E+00  0.00000000E+00
  0.00000000E+00  0.00000000E+00  0.00000000E+00
  0.00000000E+00  0.00000000E+00  0.00000000E+00
  0.00000000E+00  0.00000000E+00  0.00000000E+00
  0.00000000E+00  0.00000000E+00  0.00000000E+00
  0.00000000E+00  0.00000000E+00  0.00000000E+00
  0.00000000E+00  0.00000000E+00  0.00000000E+00
  0.00000000E+00  0.00000000E+00  0.00000000E+00
  0.00000000E+00  0.00000000E+00  0.00000000E+00
  0.00000000E+00  0.00000000E+00  0.00000000E+00
  0.00000000E+00  0.00000000E+00  0.00000000E+00
  0.00000000E+00  0.00000000E+00  0.00000000E+00
  0.00000000E+00  0.00000000E+00  0.00000000E+00
  0.00000000E+00  0.00000000E+00  0.00000000E+00
  0.00000000E+00  0.00000000E+00  0.00000000E+00
  0.00000000E+00  0.00000000E+00  0.00000000E+00
  0.00000000E+00  0.00000000E+00  0.00000000E+00
  0.00000000E+00  0.00000000E+00  0.00000000E+00
  0.00000000E+00  0.00000000E+00  0.00000000E+00
  0.00000000E+00  0.00000000E+00  0.00000000E+00
  0.00000000E+00  0.00000000E+00  0.00000000E+00
  0.00000000E+00  0.00000000E+00  0.00000000E+00
  0.00000000E+00  0.00000000E+00  0.00000000E+00
  0.00000000E+00  0.00000000E+00  0.00000000E+00
  0.00000000E+00  0.00000000E+00  0.00000000E+00
  0.00000000E+00  0.00000000E+00  0.00000000E+00
  0.00000000E+00  0.00000000E+00  0.00000000E+00
  0.00000000E+00  0.00000000E+00  0.00000000E+00
  0.00000000E+00  0.00000000E+00  0.00000000E+00
  0.00000000E+00  0.00000000E+00  0.00000000E+00
  0.00000000E+00  0.00000000E+00  0.00000000E+00
  0.00000000E+00  0.00000000E+00  0.00000000E+00
  0.00000000E+00  0.00000000E+00  0.00000000E+00
  0.00000000E+00  0.00000000E+00  0.00000000E+00
  0.00000000E+00  0.00000000E+00  0.00000000E+00
  0.00000000E+00  0.00000000E+00  0.00000000E+00
  0.00000000E+00  0.00000000E+00  0.00000000E+00
  0.00000000E+00  0.00000000E+00  0.00000000E+00
  0.00000000E+00  0.00000000E+00  0.00000000E+00
  0.00000000E+00  0.00000000E+00  0.00000000E+00
  0.00000000E+00  0.00000000E+00  0.00000000E+00
  0.00000000E+00  0.00000000E+00  0.00000000E+00
  0.00000000E+00  0.00000000E+00  0.00000000E+00
  0.00000000E+00  0.00000000E+00  0.00000000E+00
  0.00000000E+00  0.00000000E+00  0.00000000E+00
  0.00000000E+00  0.00000000E+00  0.00000000E+00
